p edge 28 196
e 1 2
e 1 4
e 1 10
e 1 11
e 1 16
e 1 19
e 1 20
e 2 3
e 2 7
e 2 12
e 2 17
e 2 18
e 2 20
e 2 28
e 3 1
e 3 4
e 3 15
e 3 17
e 3 17
e 3 23
e 3 25
e 4 3
e 4 10
e 4 16
e 4 20
e 4 27
e 4 27
e 4 28
e 5 6
e 5 11
e 5 15
e 5 18
e 5 20
e 5 24
e 5 27
e 6 1
e 6 2
e 6 2
e 6 3
e 6 8
e 6 24
e 6 26
e 7 17
e 7 18
e 7 18
e 7 21
e 7 23
e 7 24
e 7 27
e 8 9
e 8 9
e 8 9
e 8 10
e 8 18
e 8 19
e 8 19
e 9 5
e 9 6
e 9 10
e 9 14
e 9 20
e 9 25
e 9 27
e 10 3
e 10 4
e 10 13
e 10 18
e 10 18
e 10 22
e 10 26
e 11 1
e 11 8
e 11 15
e 11 19
e 11 24
e 11 24
e 11 25
e 12 5
e 12 5
e 12 8
e 12 13
e 12 15
e 12 23
e 12 24
e 13 1
e 13 5
e 13 7
e 13 8
e 13 9
e 13 16
e 13 19
e 14 8
e 14 11
e 14 12
e 14 15
e 14 15
e 14 16
e 14 19
e 15 1
e 15 6
e 15 7
e 15 9
e 15 18
e 15 21
e 15 22
e 16 7
e 16 14
e 16 14
e 16 17
e 16 21
e 16 22
e 16 26
e 17 4
e 17 12
e 17 13
e 17 16
e 17 18
e 17 18
e 17 26
e 18 2
e 18 6
e 18 6
e 18 12
e 18 20
e 18 20
e 18 25
e 19 1
e 19 12
e 19 13
e 19 16
e 19 22
e 19 23
e 19 23
e 20 4
e 20 4
e 20 5
e 20 11
e 20 12
e 20 25
e 20 26
e 21 4
e 21 5
e 21 10
e 21 12
e 21 19
e 21 25
e 21 25
e 22 6
e 22 7
e 22 8
e 22 9
e 22 12
e 22 20
e 22 26
e 23 1
e 23 11
e 23 14
e 23 17
e 23 21
e 23 22
e 23 27
e 24 4
e 24 5
e 24 8
e 24 8
e 24 9
e 24 11
e 24 17
e 25 1
e 25 2
e 25 4
e 25 4
e 25 12
e 25 17
e 25 22
e 26 2
e 26 15
e 26 21
e 26 24
e 26 24
e 26 24
e 26 27
e 27 10
e 27 11
e 27 13
e 27 16
e 27 20
e 27 22
e 27 26
e 28 2
e 28 4
e 28 5
e 28 12
e 28 21
e 28 21
e 28 24
